%%% static parameters %%%
timespan = 1;
Fact = [1];
Distr1 = [15];
Distr2 = [20];
Clients_N = [100];
Demand_W = [15];
Lt0 = [4];
Lt1 = [4];
SS_ = [0.85];
DS_D = [20];
K = [200];
MA = [500];
%%% dynamic parameters %%%
lost_ratio_sales_ret_th = 0.009542593907526908;
lost_ratio_sales_ret_w = 44;
lost_ratio_sales_dis_th = 0.0024708557483984284;
lost_ratio_sales_dis_w = 3;
lost_ratio_sales_fac_th = 0.008823331921162086;
lost_ratio_sales_fac_w = 19;
stock_customer_MA_mean_relative_th = 0.4632931934417014;
stock_customer_MA_mean_relative_w = 80;
stock_distributor_MA_mean_relative_th = 0.09559895688809872;
stock_distributor_MA_mean_relative_w = 7;
stock_retailer_MA_mean_relative_th = 0.08734216135211259;
stock_retailer_MA_mean_relative_w = 47;
stock_factory_MA_mean_relative_th = 0.42635954102144746;
stock_factory_MA_mean_relative_w = 51;
